p tw 45 48
1 2
2 13
3 4
4 5
4 16
5 6
6 7
7 8
8 9
9 10
10 11
11 12
12 14
13 24
14 15
15 36
16 17
17 18
18 19
19 20
19 36
20 21
21 22
22 23
23 25
24 35
25 26
26 27
27 28
27 32
28 29
29 30
30 31
31 22
32 33
33 34
34 36
35 41
36 37
37 38
38 41
39 40
41 42
42 43
43 44
43 39
44 45
45 3
